solutions/Insertion/cheapest/X-n134-k13.txt
[[[132], [132, 83], [132, 109, 83], [132, 109, 78, 83], [132, 109, 78, 87, 83], [132, 109, 78, 87, 74, 83], [132, 109, 78, 87, 74, 19, 83], [132, 109, 78, 87, 74, 19, 17, 83], [132, 109, 78, 87, 74, 19, 17, 83]], [[40], [40, 95], [40, 95, 100], [40, 95, 100, 122], [40, 95, 100, 122, 11], [40, 95, 100, 122, 114, 11], [40, 95, 100, 122, 114, 131, 11], [40, 95, 100, 122, 114, 131, 11]], [[118], [118, 91], [118, 60, 91], [118, 60, 14, 91], [118, 60, 14, 58, 91], [118, 60, 14, 58, 34, 91], [118, 60, 14, 58, 34, 41, 91], [118, 60, 14, 58, 34, 41, 105, 91], [118, 60, 14, 58, 34, 41, 105, 91]], [[128], [128, 76], [128, 76, 115], [128, 76, 115, 125], [128, 76, 115, 125, 127], [128, 76, 115, 125, 127, 31], [128, 76, 115, 125, 127, 31, 92], [128, 76, 115, 125, 127, 31, 92, 29], [128, 76, 115, 125, 127, 31, 92, 29]], [[130], [130, 80], [130, 80, 82], [130, 80, 82, 72], [130, 80, 82, 72, 3], [130, 80, 82, 72, 3, 124], [130, 80, 82, 72, 3, 124, 33], [130, 80, 82, 72, 3, 124, 33, 86], [130, 80, 82, 72, 3, 124, 33, 86, 133], [130, 80, 82, 72, 3, 124, 33, 86, 133]], [[52], [52, 129], [52, 129, 116], [52, 129, 116, 101], [52, 129, 116, 101, 89], [52, 129, 116, 101, 89, 113], [52, 129, 116, 101, 89, 113, 25], [52, 129, 116, 101, 89, 113, 25, 112], [52, 129, 116, 101, 89, 113, 25, 112, 48], [52, 129, 116, 101, 89, 113, 25, 112, 48]], [[38], [38, 50], [38, 50, 35], [38, 50, 35, 26], [38, 50, 35, 26, 103], [38, 50, 35, 26, 103, 12], [38, 50, 35, 26, 103, 12, 85], [38, 50, 35, 26, 103, 12, 85, 10], [38, 50, 35, 26, 103, 12, 85, 10]], [[56], [56, 123], [56, 123, 110], [56, 123, 110, 54], [56, 123, 110, 54, 32], [56, 123, 110, 54, 32, 62], [56, 123, 110, 54, 32, 62, 24], [56, 123, 110, 54, 32, 62, 24]], [[69], [69, 1], [69, 1, 49], [69, 1, 49, 117], [69, 1, 49, 117, 64], [69, 1, 49, 117, 64, 61], [69, 1, 49, 117, 64, 61, 71], [69, 1, 49, 117, 64, 61, 71, 119], [69, 1, 49, 117, 64, 61, 71, 119, 57], [69, 1, 49, 117, 64, 61, 71, 119, 57]], [[51], [51, 16], [51, 16, 47], [51, 16, 47, 9], [51, 16, 47, 9, 2], [51, 16, 47, 9, 2, 39], [51, 16, 47, 9, 2, 39, 73], [51, 16, 47, 9, 2, 39, 73]], [[106], [106, 104], [106, 104, 46], [106, 104, 46, 99], [106, 104, 46, 99, 21], [106, 104, 46, 99, 21, 111], [106, 104, 46, 99, 21, 111, 120], [106, 104, 46, 99, 21, 111, 120, 79], [106, 104, 46, 99, 21, 111, 120, 79, 43], [106, 104, 46, 99, 21, 111, 120, 79, 43]], [[18], [18, 59], [18, 59, 96], [18, 59, 96, 13], [18, 59, 96, 13, 97], [18, 59, 96, 13, 97, 5], [18, 59, 96, 13, 97, 5, 6], [18, 59, 96, 13, 97, 5, 6, 108], [18, 59, 96, 13, 97, 5, 6, 108, 90], [18, 59, 96, 13, 97, 5, 6, 108, 90, 66], [18, 59, 96, 13, 97, 5, 6, 108, 90, 66, 77], [18, 59, 96, 13, 97, 5, 6, 108, 90, 66, 77, 53], [18, 59, 96, 13, 97, 5, 6, 108, 90, 66, 77, 53, 36], [18, 59, 96, 13, 97, 5, 6, 108, 90, 66, 77, 53, 36, 45], [18, 59, 96, 13, 97, 5, 6, 108, 90, 66, 77, 53, 36, 45]], [[37], [37, 88], [37, 88, 102], [37, 88, 102, 94], [37, 88, 102, 94, 93], [37, 88, 102, 94, 93, 42], [37, 88, 102, 94, 93, 23, 42], [37, 88, 102, 94, 93, 23, 30, 42], [37, 88, 102, 94, 93, 23, 30, 8, 42], [37, 88, 102, 94, 93, 23, 30, 8, 107, 42], [37, 88, 102, 94, 93, 23, 30, 8, 107, 44, 42], [37, 88, 102, 94, 93, 23, 30, 8, 107, 44, 98, 42], [37, 88, 102, 94, 93, 23, 30, 8, 84, 107, 44, 98, 42], [37, 88, 102, 94, 93, 23, 30, 8, 68, 84, 107, 44, 98, 42], [37, 88, 102, 94, 93, 23, 30, 8, 81, 68, 84, 107, 44, 98, 42], [37, 88, 102, 94, 93, 23, 30, 8, 81, 15, 68, 84, 107, 44, 98, 42], [37, 88, 102, 94, 93, 23, 30, 8, 81, 15, 68, 84, 107, 44, 98, 65, 42], [37, 88, 102, 94, 93, 23, 30, 8, 81, 63, 15, 68, 84, 107, 44, 98, 65, 42], [37, 88, 102, 94, 93, 23, 30, 8, 81, 7, 63, 15, 68, 84, 107, 44, 98, 65, 42], [37, 88, 102, 94, 93, 23, 30, 8, 81, 7, 121, 63, 15, 68, 84, 107, 44, 98, 65, 42], [37, 88, 102, 94, 93, 23, 30, 8, 81, 7, 121, 63, 15, 68, 84, 107, 70, 44, 98, 65, 42], [37, 88, 102, 94, 93, 23, 30, 8, 81, 7, 121, 63, 15, 68, 84, 107, 70, 44, 98, 65, 42]], [[4], [4, 27], [4, 27, 22], [4, 27, 22, 67], [4, 27, 22, 67, 55], [4, 27, 22, 67, 55, 126], [4, 27, 22, 67, 55, 126, 20], [4, 27, 22, 67, 55, 126, 20, 75], [4, 27, 22, 67, 55, 126, 20, 75, 28], [4, 27, 22, 67, 55, 126, 20, 75, 28]]]