solutions/Insertion/cheapest/X-n134-k13.sol
Route #1: 132 109 78 87 74 19 17 83
Route #2: 40 95 100 122 114 131 11
Route #3: 118 60 14 58 34 41 105 91
Route #4: 128 76 115 125 127 31 92 29
Route #5: 130 80 82 72 3 124 33 86 133
Route #6: 52 129 116 101 89 113 25 112 48
Route #7: 38 50 35 26 103 12 85 10
Route #8: 56 123 110 54 32 62 24
Route #9: 69 1 49 117 64 61 71 119 57
Route #10: 51 16 47 9 2 39 73
Route #11: 106 104 46 99 21 111 120 79 43
Route #12: 18 59 96 13 97 5 6 108 90 66 77 53 36 45
Route #13: 37 88 102 94 93 23 30 8 81 7 121 63 15 68 84 107 70 44 98 65 42
Route #14: 4 27 22 67 55 126 20 75 28
cost: 13052
